
Gurobi 11.0.3 (linux64) logging started Sun Aug 24 14:32:50 2025

Set parameter LogFile to value "/home/yihong/Coding/OR_SUC/SUC_ALSO_results_bigM100000_thread4/case24_ieee_rts_theta0.1_epsilon0.4_gurobi_seed190000_num_gen10_N_WDR50_load_scaling_factor2_exact_T2quadra_cost.txt"
Set parameter TimeLimit to value 3600
Gurobi Optimizer version 11.0.3 build v11.0.3rc0 (linux64 - "Ubuntu 20.04.6 LTS")

CPU model: AMD EPYC 7532 32-Core Processor, instruction set [SSE2|AVX|AVX2]
Thread count: 64 physical cores, 128 logical processors, using up to 4 threads

Academic license 2399124 - for non-commercial use only - registered to yi___@ed.ac.uk
Optimize a model with 3721 rows, 421 columns and 73414 nonzeros
Model fingerprint: 0x83a5a7e6
Model has 20 quadratic constraints
Variable types: 351 continuous, 70 integer (70 binary)
Coefficient statistics:
  Matrix range     [4e-04, 1e+05]
  QMatrix range    [2e-03, 8e-03]
  QLMatrix range   [1e+00, 3e+02]
  Objective range  [1e+00, 1e+00]
  Bounds range     [1e+00, 1e+00]
  RHS range        [1e-01, 1e+05]
Presolve removed 2014 rows and 176 columns
Presolve time: 0.07s
Presolved: 1707 rows, 245 columns, 32769 nonzeros
Presolved model has 20 quadratic constraint(s)
Variable types: 175 continuous, 70 integer (70 binary)

Root relaxation: objective 1.110558e+03, 191 iterations, 0.02 seconds (0.02 work units)

    Nodes    |    Current Node    |     Objective Bounds      |     Work
 Expl Unexpl |  Obj  Depth IntInf | Incumbent    BestBd   Gap | It/Node Time

     0     0 1110.55784    0   37          - 1110.55784      -     -    0s
     0     0 99621.7875    0   47          - 99621.7875      -     -    0s
     0     0 100105.907    0   48          - 100105.907      -     -    0s
     0     0 107404.904    0   49          - 107404.904      -     -    0s
     0     0 107434.118    0   48          - 107434.118      -     -    0s
     0     0 107925.393    0   31          - 107925.393      -     -    0s
     0     0 107940.340    0   30          - 107940.340      -     -    0s
     0     0 107999.912    0   33          - 107999.912      -     -    0s
     0     0 108017.371    0   32          - 108017.371      -     -    0s
     0     0 108036.149    0   29          - 108036.149      -     -    0s
     0     0 108041.774    0   28          - 108041.774      -     -    0s
     0     0 108044.289    0   30          - 108044.289      -     -    0s
     0     0 108064.419    0   30          - 108064.419      -     -    0s
H    0     0                    108991.61463 108064.419  0.85%     -    0s
     0     0 108064.419    0   39 108991.615 108064.419  0.85%     -    1s
     0     0 108064.419    0   32 108991.615 108064.419  0.85%     -    1s
     0     0 108064.419    0   29 108991.615 108064.419  0.85%     -    1s
     0     0 108064.419    0   33 108991.615 108064.419  0.85%     -    1s
     0     0 108064.419    0   31 108991.615 108064.419  0.85%     -    1s
     0     0 108066.343    0   31 108991.615 108066.343  0.85%     -    1s
     0     0 108073.516    0   31 108991.615 108073.516  0.84%     -    1s
     0     0 108128.372    0   32 108991.615 108128.372  0.79%     -    1s
     0     0 108128.517    0   31 108991.615 108128.517  0.79%     -    1s
     0     0 108129.749    0   27 108991.615 108129.749  0.79%     -    1s
     0     0 108141.687    0   27 108991.615 108141.687  0.78%     -    1s
     0     0 108141.687    0   30 108991.615 108141.687  0.78%     -    1s
     0     0 108141.687    0   34 108991.615 108141.687  0.78%     -    1s
     0     0 108141.687    0   35 108991.615 108141.687  0.78%     -    1s
     0     0 108152.545    0   35 108991.615 108152.545  0.77%     -    1s
     0     2 108157.827    0   35 108991.615 108157.827  0.77%     -    1s
  5300  2192 108620.735   27   21 108991.615 108464.856  0.48%  26.5    5s
H13524  4484                    108964.57104 108551.518  0.38%  25.5    7s
*13524  4484              40    108964.57104 108551.518  0.38%  25.5    7s
 18927  5443 108837.155   31   24 108964.571 108587.985  0.35%  25.4   10s
 35524  6423 108804.021   26   27 108964.571 108676.282  0.26%  25.2   15s
 52244  5027 108948.047   30   19 108964.571 108753.259  0.19%  25.2   20s

Cutting planes:
  Gomory: 8
  Implied bound: 8
  MIR: 136
  Flow cover: 227
  RLT: 41

Explored 66173 nodes (1671540 simplex iterations) in 23.84 seconds (35.07 work units)
Thread count was 4 (of 128 available processors)

Solution count 3: 108965 108965 108992 

Optimal solution found (tolerance 1.00e-03)
Warning: max constraint violation (1.5957e-04) exceeds tolerance
         (model may be infeasible or unbounded - try turning presolve off)
Best objective 1.089645710372e+05, best bound 1.088574825774e+05, gap 0.0983%
